unknown
(:binary-propagations  1677
 :decisions            266
 :del-clause           556
 :final-checks         2
 :max-generation       1
 :max-memory           31.05
 :memory               22.94
 :mk-bool-var          3558
 :mk-clause            746
 :mk-clause-binary     2002
 :num-allocs           157904826
 :num-checks           1
 :propagations         1736
 :quant-instantiations 556
 :restarts             1
 :rlimit-count         1394677
 :time                 0.30)
